c
c Generated WCNF file
c
p wcnf 407 1947 62960
62960 29 0
62960 -30 1 0
62960 -30 2 0
62960 30 -1 -2 0
62960 -31 1 0
62960 -31 3 0
62960 31 -1 -3 0
62960 -32 1 0
62960 -32 4 0
62960 32 -1 -4 0
62960 -33 1 0
62960 -33 5 0
62960 33 -1 -5 0
62960 -34 1 0
62960 -34 6 0
62960 34 -1 -6 0
62960 -35 1 0
62960 -35 7 0
62960 35 -1 -7 0
62960 -36 1 0
62960 -36 8 0
62960 36 -1 -8 0
62960 -37 1 0
62960 -37 9 0
62960 37 -1 -9 0
62960 -38 1 0
62960 -38 10 0
62960 38 -1 -10 0
62960 -39 1 0
62960 -39 11 0
62960 39 -1 -11 0
62960 -40 1 0
62960 -40 12 0
62960 40 -1 -12 0
62960 -41 1 0
62960 -41 13 0
62960 41 -1 -13 0
62960 -42 1 0
62960 -42 14 0
62960 42 -1 -14 0
62960 -43 1 0
62960 -43 15 0
62960 43 -1 -15 0
62960 -44 1 0
62960 -44 16 0
62960 44 -1 -16 0
62960 -45 1 0
62960 -45 17 0
62960 45 -1 -17 0
62960 -46 1 0
62960 -46 18 0
62960 46 -1 -18 0
62960 -47 1 0
62960 -47 19 0
62960 47 -1 -19 0
62960 -48 1 0
62960 -48 20 0
62960 48 -1 -20 0
62960 -49 1 0
62960 -49 21 0
62960 49 -1 -21 0
62960 -50 1 0
62960 -50 22 0
62960 50 -1 -22 0
62960 -51 1 0
62960 -51 23 0
62960 51 -1 -23 0
62960 -52 1 0
62960 -52 24 0
62960 52 -1 -24 0
62960 -53 1 0
62960 -53 25 0
62960 53 -1 -25 0
62960 -54 1 0
62960 -54 26 0
62960 54 -1 -26 0
62960 -55 1 0
62960 -55 27 0
62960 55 -1 -27 0
62960 -56 1 0
62960 -56 28 0
62960 56 -1 -28 0
62960 -57 2 0
62960 -57 3 0
62960 57 -2 -3 0
62960 -58 2 0
62960 -58 4 0
62960 58 -2 -4 0
62960 -59 2 0
62960 -59 5 0
62960 59 -2 -5 0
62960 -60 2 0
62960 -60 6 0
62960 60 -2 -6 0
62960 -61 2 0
62960 -61 7 0
62960 61 -2 -7 0
62960 -62 2 0
62960 -62 8 0
62960 62 -2 -8 0
62960 -63 2 0
62960 -63 9 0
62960 63 -2 -9 0
62960 -64 2 0
62960 -64 10 0
62960 64 -2 -10 0
62960 -65 2 0
62960 -65 11 0
62960 65 -2 -11 0
62960 -66 2 0
62960 -66 12 0
62960 66 -2 -12 0
62960 -67 2 0
62960 -67 13 0
62960 67 -2 -13 0
62960 -68 2 0
62960 -68 14 0
62960 68 -2 -14 0
62960 -69 2 0
62960 -69 15 0
62960 69 -2 -15 0
62960 -70 2 0
62960 -70 16 0
62960 70 -2 -16 0
62960 -71 2 0
62960 -71 17 0
62960 71 -2 -17 0
62960 -72 2 0
62960 -72 18 0
62960 72 -2 -18 0
62960 -73 2 0
62960 -73 19 0
62960 73 -2 -19 0
62960 -74 2 0
62960 -74 20 0
62960 74 -2 -20 0
62960 -75 2 0
62960 -75 21 0
62960 75 -2 -21 0
62960 -76 2 0
62960 -76 22 0
62960 76 -2 -22 0
62960 -77 2 0
62960 -77 23 0
62960 77 -2 -23 0
62960 -78 2 0
62960 -78 24 0
62960 78 -2 -24 0
62960 -79 2 0
62960 -79 25 0
62960 79 -2 -25 0
62960 -80 2 0
62960 -80 26 0
62960 80 -2 -26 0
62960 -81 2 0
62960 -81 27 0
62960 81 -2 -27 0
62960 -82 2 0
62960 -82 28 0
62960 82 -2 -28 0
62960 -83 3 0
62960 -83 4 0
62960 83 -3 -4 0
62960 -84 3 0
62960 -84 5 0
62960 84 -3 -5 0
62960 -85 3 0
62960 -85 6 0
62960 85 -3 -6 0
62960 -86 3 0
62960 -86 7 0
62960 86 -3 -7 0
62960 -87 3 0
62960 -87 8 0
62960 87 -3 -8 0
62960 -88 3 0
62960 -88 9 0
62960 88 -3 -9 0
62960 -89 3 0
62960 -89 10 0
62960 89 -3 -10 0
62960 -90 3 0
62960 -90 11 0
62960 90 -3 -11 0
62960 -91 3 0
62960 -91 12 0
62960 91 -3 -12 0
62960 -92 3 0
62960 -92 13 0
62960 92 -3 -13 0
62960 -93 3 0
62960 -93 14 0
62960 93 -3 -14 0
62960 -94 3 0
62960 -94 15 0
62960 94 -3 -15 0
62960 -95 3 0
62960 -95 16 0
62960 95 -3 -16 0
62960 -96 3 0
62960 -96 17 0
62960 96 -3 -17 0
62960 -97 3 0
62960 -97 18 0
62960 97 -3 -18 0
62960 -98 3 0
62960 -98 19 0
62960 98 -3 -19 0
62960 -99 3 0
62960 -99 20 0
62960 99 -3 -20 0
62960 -100 3 0
62960 -100 21 0
62960 100 -3 -21 0
62960 -101 3 0
62960 -101 22 0
62960 101 -3 -22 0
62960 -102 3 0
62960 -102 23 0
62960 102 -3 -23 0
62960 -103 3 0
62960 -103 24 0
62960 103 -3 -24 0
62960 -104 3 0
62960 -104 25 0
62960 104 -3 -25 0
62960 -105 3 0
62960 -105 26 0
62960 105 -3 -26 0
62960 -106 3 0
62960 -106 27 0
62960 106 -3 -27 0
62960 -107 3 0
62960 -107 28 0
62960 107 -3 -28 0
62960 -108 4 0
62960 -108 5 0
62960 108 -4 -5 0
62960 -109 4 0
62960 -109 6 0
62960 109 -4 -6 0
62960 -110 4 0
62960 -110 7 0
62960 110 -4 -7 0
62960 -111 4 0
62960 -111 8 0
62960 111 -4 -8 0
62960 -112 4 0
62960 -112 9 0
62960 112 -4 -9 0
62960 -113 4 0
62960 -113 10 0
62960 113 -4 -10 0
62960 -114 4 0
62960 -114 11 0
62960 114 -4 -11 0
62960 -115 4 0
62960 -115 12 0
62960 115 -4 -12 0
62960 -116 4 0
62960 -116 13 0
62960 116 -4 -13 0
62960 -117 4 0
62960 -117 14 0
62960 117 -4 -14 0
62960 -118 4 0
62960 -118 15 0
62960 118 -4 -15 0
62960 -119 4 0
62960 -119 16 0
62960 119 -4 -16 0
62960 -120 4 0
62960 -120 17 0
62960 120 -4 -17 0
62960 -121 4 0
62960 -121 18 0
62960 121 -4 -18 0
62960 -122 4 0
62960 -122 19 0
62960 122 -4 -19 0
62960 -123 4 0
62960 -123 20 0
62960 123 -4 -20 0
62960 -124 4 0
62960 -124 21 0
62960 124 -4 -21 0
62960 -125 4 0
62960 -125 22 0
62960 125 -4 -22 0
62960 -126 4 0
62960 -126 23 0
62960 126 -4 -23 0
62960 -127 4 0
62960 -127 24 0
62960 127 -4 -24 0
62960 -128 4 0
62960 -128 25 0
62960 128 -4 -25 0
62960 -129 4 0
62960 -129 26 0
62960 129 -4 -26 0
62960 -130 4 0
62960 -130 27 0
62960 130 -4 -27 0
62960 -131 4 0
62960 -131 28 0
62960 131 -4 -28 0
62960 -132 5 0
62960 -132 6 0
62960 132 -5 -6 0
62960 -133 5 0
62960 -133 7 0
62960 133 -5 -7 0
62960 -134 5 0
62960 -134 8 0
62960 134 -5 -8 0
62960 -135 5 0
62960 -135 9 0
62960 135 -5 -9 0
62960 -136 5 0
62960 -136 10 0
62960 136 -5 -10 0
62960 -137 5 0
62960 -137 11 0
62960 137 -5 -11 0
62960 -138 5 0
62960 -138 12 0
62960 138 -5 -12 0
62960 -139 5 0
62960 -139 13 0
62960 139 -5 -13 0
62960 -140 5 0
62960 -140 14 0
62960 140 -5 -14 0
62960 -141 5 0
62960 -141 15 0
62960 141 -5 -15 0
62960 -142 5 0
62960 -142 16 0
62960 142 -5 -16 0
62960 -143 5 0
62960 -143 17 0
62960 143 -5 -17 0
62960 -144 5 0
62960 -144 18 0
62960 144 -5 -18 0
62960 -145 5 0
62960 -145 19 0
62960 145 -5 -19 0
62960 -146 5 0
62960 -146 20 0
62960 146 -5 -20 0
62960 -147 5 0
62960 -147 21 0
62960 147 -5 -21 0
62960 -148 5 0
62960 -148 22 0
62960 148 -5 -22 0
62960 -149 5 0
62960 -149 23 0
62960 149 -5 -23 0
62960 -150 5 0
62960 -150 24 0
62960 150 -5 -24 0
62960 -151 5 0
62960 -151 25 0
62960 151 -5 -25 0
62960 -152 5 0
62960 -152 26 0
62960 152 -5 -26 0
62960 -153 5 0
62960 -153 27 0
62960 153 -5 -27 0
62960 -154 5 0
62960 -154 28 0
62960 154 -5 -28 0
62960 -155 6 0
62960 -155 7 0
62960 155 -6 -7 0
62960 -156 6 0
62960 -156 8 0
62960 156 -6 -8 0
62960 -157 6 0
62960 -157 9 0
62960 157 -6 -9 0
62960 -158 6 0
62960 -158 10 0
62960 158 -6 -10 0
62960 -159 6 0
62960 -159 11 0
62960 159 -6 -11 0
62960 -160 6 0
62960 -160 12 0
62960 160 -6 -12 0
62960 -161 6 0
62960 -161 13 0
62960 161 -6 -13 0
62960 -162 6 0
62960 -162 14 0
62960 162 -6 -14 0
62960 -163 6 0
62960 -163 15 0
62960 163 -6 -15 0
62960 -164 6 0
62960 -164 16 0
62960 164 -6 -16 0
62960 -165 6 0
62960 -165 17 0
62960 165 -6 -17 0
62960 -166 6 0
62960 -166 18 0
62960 166 -6 -18 0
62960 -167 6 0
62960 -167 19 0
62960 167 -6 -19 0
62960 -168 6 0
62960 -168 20 0
62960 168 -6 -20 0
62960 -169 6 0
62960 -169 21 0
62960 169 -6 -21 0
62960 -170 6 0
62960 -170 22 0
62960 170 -6 -22 0
62960 -171 6 0
62960 -171 23 0
62960 171 -6 -23 0
62960 -172 6 0
62960 -172 24 0
62960 172 -6 -24 0
62960 -173 6 0
62960 -173 25 0
62960 173 -6 -25 0
62960 -174 6 0
62960 -174 26 0
62960 174 -6 -26 0
62960 -175 6 0
62960 -175 27 0
62960 175 -6 -27 0
62960 -176 6 0
62960 -176 28 0
62960 176 -6 -28 0
62960 -177 7 0
62960 -177 8 0
62960 177 -7 -8 0
62960 -178 7 0
62960 -178 9 0
62960 178 -7 -9 0
62960 -179 7 0
62960 -179 10 0
62960 179 -7 -10 0
62960 -180 7 0
62960 -180 11 0
62960 180 -7 -11 0
62960 -181 7 0
62960 -181 12 0
62960 181 -7 -12 0
62960 -182 7 0
62960 -182 13 0
62960 182 -7 -13 0
62960 -183 7 0
62960 -183 14 0
62960 183 -7 -14 0
62960 -184 7 0
62960 -184 15 0
62960 184 -7 -15 0
62960 -185 7 0
62960 -185 16 0
62960 185 -7 -16 0
62960 -186 7 0
62960 -186 17 0
62960 186 -7 -17 0
62960 -187 7 0
62960 -187 18 0
62960 187 -7 -18 0
62960 -188 7 0
62960 -188 19 0
62960 188 -7 -19 0
62960 -189 7 0
62960 -189 20 0
62960 189 -7 -20 0
62960 -190 7 0
62960 -190 21 0
62960 190 -7 -21 0
62960 -191 7 0
62960 -191 22 0
62960 191 -7 -22 0
62960 -192 7 0
62960 -192 23 0
62960 192 -7 -23 0
62960 -193 7 0
62960 -193 24 0
62960 193 -7 -24 0
62960 -194 7 0
62960 -194 25 0
62960 194 -7 -25 0
62960 -195 7 0
62960 -195 26 0
62960 195 -7 -26 0
62960 -196 7 0
62960 -196 27 0
62960 196 -7 -27 0
62960 -197 7 0
62960 -197 28 0
62960 197 -7 -28 0
62960 -198 8 0
62960 -198 9 0
62960 198 -8 -9 0
62960 -199 8 0
62960 -199 10 0
62960 199 -8 -10 0
62960 -200 8 0
62960 -200 11 0
62960 200 -8 -11 0
62960 -201 8 0
62960 -201 12 0
62960 201 -8 -12 0
62960 -202 8 0
62960 -202 13 0
62960 202 -8 -13 0
62960 -203 8 0
62960 -203 14 0
62960 203 -8 -14 0
62960 -204 8 0
62960 -204 15 0
62960 204 -8 -15 0
62960 -205 8 0
62960 -205 16 0
62960 205 -8 -16 0
62960 -206 8 0
62960 -206 17 0
62960 206 -8 -17 0
62960 -207 8 0
62960 -207 18 0
62960 207 -8 -18 0
62960 -208 8 0
62960 -208 19 0
62960 208 -8 -19 0
62960 -209 8 0
62960 -209 20 0
62960 209 -8 -20 0
62960 -210 8 0
62960 -210 21 0
62960 210 -8 -21 0
62960 -211 8 0
62960 -211 22 0
62960 211 -8 -22 0
62960 -212 8 0
62960 -212 23 0
62960 212 -8 -23 0
62960 -213 8 0
62960 -213 24 0
62960 213 -8 -24 0
62960 -214 8 0
62960 -214 25 0
62960 214 -8 -25 0
62960 -215 8 0
62960 -215 26 0
62960 215 -8 -26 0
62960 -216 8 0
62960 -216 27 0
62960 216 -8 -27 0
62960 -217 8 0
62960 -217 28 0
62960 217 -8 -28 0
62960 -218 9 0
62960 -218 10 0
62960 218 -9 -10 0
62960 -219 9 0
62960 -219 11 0
62960 219 -9 -11 0
62960 -220 9 0
62960 -220 12 0
62960 220 -9 -12 0
62960 -221 9 0
62960 -221 13 0
62960 221 -9 -13 0
62960 -222 9 0
62960 -222 14 0
62960 222 -9 -14 0
62960 -223 9 0
62960 -223 15 0
62960 223 -9 -15 0
62960 -224 9 0
62960 -224 16 0
62960 224 -9 -16 0
62960 -225 9 0
62960 -225 17 0
62960 225 -9 -17 0
62960 -226 9 0
62960 -226 18 0
62960 226 -9 -18 0
62960 -227 9 0
62960 -227 19 0
62960 227 -9 -19 0
62960 -228 9 0
62960 -228 20 0
62960 228 -9 -20 0
62960 -229 9 0
62960 -229 21 0
62960 229 -9 -21 0
62960 -230 9 0
62960 -230 22 0
62960 230 -9 -22 0
62960 -231 9 0
62960 -231 23 0
62960 231 -9 -23 0
62960 -232 9 0
62960 -232 24 0
62960 232 -9 -24 0
62960 -233 9 0
62960 -233 25 0
62960 233 -9 -25 0
62960 -234 9 0
62960 -234 26 0
62960 234 -9 -26 0
62960 -235 9 0
62960 -235 27 0
62960 235 -9 -27 0
62960 -236 9 0
62960 -236 28 0
62960 236 -9 -28 0
62960 -237 10 0
62960 -237 11 0
62960 237 -10 -11 0
62960 -238 10 0
62960 -238 12 0
62960 238 -10 -12 0
62960 -239 10 0
62960 -239 13 0
62960 239 -10 -13 0
62960 -240 10 0
62960 -240 14 0
62960 240 -10 -14 0
62960 -241 10 0
62960 -241 15 0
62960 241 -10 -15 0
62960 -242 10 0
62960 -242 16 0
62960 242 -10 -16 0
62960 -243 10 0
62960 -243 17 0
62960 243 -10 -17 0
62960 -244 10 0
62960 -244 18 0
62960 244 -10 -18 0
62960 -245 10 0
62960 -245 19 0
62960 245 -10 -19 0
62960 -246 10 0
62960 -246 20 0
62960 246 -10 -20 0
62960 -247 10 0
62960 -247 21 0
62960 247 -10 -21 0
62960 -248 10 0
62960 -248 22 0
62960 248 -10 -22 0
62960 -249 10 0
62960 -249 23 0
62960 249 -10 -23 0
62960 -250 10 0
62960 -250 24 0
62960 250 -10 -24 0
62960 -251 10 0
62960 -251 25 0
62960 251 -10 -25 0
62960 -252 10 0
62960 -252 26 0
62960 252 -10 -26 0
62960 -253 10 0
62960 -253 27 0
62960 253 -10 -27 0
62960 -254 10 0
62960 -254 28 0
62960 254 -10 -28 0
62960 -255 11 0
62960 -255 12 0
62960 255 -11 -12 0
62960 -256 11 0
62960 -256 13 0
62960 256 -11 -13 0
62960 -257 11 0
62960 -257 14 0
62960 257 -11 -14 0
62960 -258 11 0
62960 -258 15 0
62960 258 -11 -15 0
62960 -259 11 0
62960 -259 16 0
62960 259 -11 -16 0
62960 -260 11 0
62960 -260 17 0
62960 260 -11 -17 0
62960 -261 11 0
62960 -261 18 0
62960 261 -11 -18 0
62960 -262 11 0
62960 -262 19 0
62960 262 -11 -19 0
62960 -263 11 0
62960 -263 20 0
62960 263 -11 -20 0
62960 -264 11 0
62960 -264 21 0
62960 264 -11 -21 0
62960 -265 11 0
62960 -265 22 0
62960 265 -11 -22 0
62960 -266 11 0
62960 -266 23 0
62960 266 -11 -23 0
62960 -267 11 0
62960 -267 24 0
62960 267 -11 -24 0
62960 -268 11 0
62960 -268 25 0
62960 268 -11 -25 0
62960 -269 11 0
62960 -269 26 0
62960 269 -11 -26 0
62960 -270 11 0
62960 -270 27 0
62960 270 -11 -27 0
62960 -271 11 0
62960 -271 28 0
62960 271 -11 -28 0
62960 -272 12 0
62960 -272 13 0
62960 272 -12 -13 0
62960 -273 12 0
62960 -273 14 0
62960 273 -12 -14 0
62960 -274 12 0
62960 -274 15 0
62960 274 -12 -15 0
62960 -275 12 0
62960 -275 16 0
62960 275 -12 -16 0
62960 -276 12 0
62960 -276 17 0
62960 276 -12 -17 0
62960 -277 12 0
62960 -277 18 0
62960 277 -12 -18 0
62960 -278 12 0
62960 -278 19 0
62960 278 -12 -19 0
62960 -279 12 0
62960 -279 20 0
62960 279 -12 -20 0
62960 -280 12 0
62960 -280 21 0
62960 280 -12 -21 0
62960 -281 12 0
62960 -281 22 0
62960 281 -12 -22 0
62960 -282 12 0
62960 -282 23 0
62960 282 -12 -23 0
62960 -283 12 0
62960 -283 24 0
62960 283 -12 -24 0
62960 -284 12 0
62960 -284 25 0
62960 284 -12 -25 0
62960 -285 12 0
62960 -285 26 0
62960 285 -12 -26 0
62960 -286 12 0
62960 -286 27 0
62960 286 -12 -27 0
62960 -287 12 0
62960 -287 28 0
62960 287 -12 -28 0
62960 -288 13 0
62960 -288 14 0
62960 288 -13 -14 0
62960 -289 13 0
62960 -289 15 0
62960 289 -13 -15 0
62960 -290 13 0
62960 -290 16 0
62960 290 -13 -16 0
62960 -291 13 0
62960 -291 17 0
62960 291 -13 -17 0
62960 -292 13 0
62960 -292 18 0
62960 292 -13 -18 0
62960 -293 13 0
62960 -293 19 0
62960 293 -13 -19 0
62960 -294 13 0
62960 -294 20 0
62960 294 -13 -20 0
62960 -295 13 0
62960 -295 21 0
62960 295 -13 -21 0
62960 -296 13 0
62960 -296 22 0
62960 296 -13 -22 0
62960 -297 13 0
62960 -297 23 0
62960 297 -13 -23 0
62960 -298 13 0
62960 -298 24 0
62960 298 -13 -24 0
62960 -299 13 0
62960 -299 25 0
62960 299 -13 -25 0
62960 -300 13 0
62960 -300 26 0
62960 300 -13 -26 0
62960 -301 13 0
62960 -301 27 0
62960 301 -13 -27 0
62960 -302 13 0
62960 -302 28 0
62960 302 -13 -28 0
62960 -303 14 0
62960 -303 15 0
62960 303 -14 -15 0
62960 -304 14 0
62960 -304 16 0
62960 304 -14 -16 0
62960 -305 14 0
62960 -305 17 0
62960 305 -14 -17 0
62960 -306 14 0
62960 -306 18 0
62960 306 -14 -18 0
62960 -307 14 0
62960 -307 19 0
62960 307 -14 -19 0
62960 -308 14 0
62960 -308 20 0
62960 308 -14 -20 0
62960 -309 14 0
62960 -309 21 0
62960 309 -14 -21 0
62960 -310 14 0
62960 -310 22 0
62960 310 -14 -22 0
62960 -311 14 0
62960 -311 23 0
62960 311 -14 -23 0
62960 -312 14 0
62960 -312 24 0
62960 312 -14 -24 0
62960 -313 14 0
62960 -313 25 0
62960 313 -14 -25 0
62960 -314 14 0
62960 -314 26 0
62960 314 -14 -26 0
62960 -315 14 0
62960 -315 27 0
62960 315 -14 -27 0
62960 -316 14 0
62960 -316 28 0
62960 316 -14 -28 0
62960 -317 15 0
62960 -317 16 0
62960 317 -15 -16 0
62960 -318 15 0
62960 -318 17 0
62960 318 -15 -17 0
62960 -319 15 0
62960 -319 18 0
62960 319 -15 -18 0
62960 -320 15 0
62960 -320 19 0
62960 320 -15 -19 0
62960 -321 15 0
62960 -321 20 0
62960 321 -15 -20 0
62960 -322 15 0
62960 -322 21 0
62960 322 -15 -21 0
62960 -323 15 0
62960 -323 22 0
62960 323 -15 -22 0
62960 -324 15 0
62960 -324 23 0
62960 324 -15 -23 0
62960 -325 15 0
62960 -325 24 0
62960 325 -15 -24 0
62960 -326 15 0
62960 -326 25 0
62960 326 -15 -25 0
62960 -327 15 0
62960 -327 26 0
62960 327 -15 -26 0
62960 -328 15 0
62960 -328 27 0
62960 328 -15 -27 0
62960 -329 15 0
62960 -329 28 0
62960 329 -15 -28 0
62960 -330 16 0
62960 -330 17 0
62960 330 -16 -17 0
62960 -331 16 0
62960 -331 18 0
62960 331 -16 -18 0
62960 -332 16 0
62960 -332 19 0
62960 332 -16 -19 0
62960 -333 16 0
62960 -333 20 0
62960 333 -16 -20 0
62960 -334 16 0
62960 -334 21 0
62960 334 -16 -21 0
62960 -335 16 0
62960 -335 22 0
62960 335 -16 -22 0
62960 -336 16 0
62960 -336 23 0
62960 336 -16 -23 0
62960 -337 16 0
62960 -337 24 0
62960 337 -16 -24 0
62960 -338 16 0
62960 -338 25 0
62960 338 -16 -25 0
62960 -339 16 0
62960 -339 26 0
62960 339 -16 -26 0
62960 -340 16 0
62960 -340 27 0
62960 340 -16 -27 0
62960 -341 16 0
62960 -341 28 0
62960 341 -16 -28 0
62960 -342 17 0
62960 -342 18 0
62960 342 -17 -18 0
62960 -343 17 0
62960 -343 19 0
62960 343 -17 -19 0
62960 -344 17 0
62960 -344 20 0
62960 344 -17 -20 0
62960 -345 17 0
62960 -345 21 0
62960 345 -17 -21 0
62960 -346 17 0
62960 -346 22 0
62960 346 -17 -22 0
62960 -347 17 0
62960 -347 23 0
62960 347 -17 -23 0
62960 -348 17 0
62960 -348 24 0
62960 348 -17 -24 0
62960 -349 17 0
62960 -349 25 0
62960 349 -17 -25 0
62960 -350 17 0
62960 -350 26 0
62960 350 -17 -26 0
62960 -351 17 0
62960 -351 27 0
62960 351 -17 -27 0
62960 -352 17 0
62960 -352 28 0
62960 352 -17 -28 0
62960 -353 18 0
62960 -353 19 0
62960 353 -18 -19 0
62960 -354 18 0
62960 -354 20 0
62960 354 -18 -20 0
62960 -355 18 0
62960 -355 21 0
62960 355 -18 -21 0
62960 -356 18 0
62960 -356 22 0
62960 356 -18 -22 0
62960 -357 18 0
62960 -357 23 0
62960 357 -18 -23 0
62960 -358 18 0
62960 -358 24 0
62960 358 -18 -24 0
62960 -359 18 0
62960 -359 25 0
62960 359 -18 -25 0
62960 -360 18 0
62960 -360 26 0
62960 360 -18 -26 0
62960 -361 18 0
62960 -361 27 0
62960 361 -18 -27 0
62960 -362 18 0
62960 -362 28 0
62960 362 -18 -28 0
62960 -363 19 0
62960 -363 20 0
62960 363 -19 -20 0
62960 -364 19 0
62960 -364 21 0
62960 364 -19 -21 0
62960 -365 19 0
62960 -365 22 0
62960 365 -19 -22 0
62960 -366 19 0
62960 -366 23 0
62960 366 -19 -23 0
62960 -367 19 0
62960 -367 24 0
62960 367 -19 -24 0
62960 -368 19 0
62960 -368 25 0
62960 368 -19 -25 0
62960 -369 19 0
62960 -369 26 0
62960 369 -19 -26 0
62960 -370 19 0
62960 -370 27 0
62960 370 -19 -27 0
62960 -371 19 0
62960 -371 28 0
62960 371 -19 -28 0
62960 -372 20 0
62960 -372 21 0
62960 372 -20 -21 0
62960 -373 20 0
62960 -373 22 0
62960 373 -20 -22 0
62960 -374 20 0
62960 -374 23 0
62960 374 -20 -23 0
62960 -375 20 0
62960 -375 24 0
62960 375 -20 -24 0
62960 -376 20 0
62960 -376 25 0
62960 376 -20 -25 0
62960 -377 20 0
62960 -377 26 0
62960 377 -20 -26 0
62960 -378 20 0
62960 -378 27 0
62960 378 -20 -27 0
62960 -379 20 0
62960 -379 28 0
62960 379 -20 -28 0
62960 -380 21 0
62960 -380 22 0
62960 380 -21 -22 0
62960 -381 21 0
62960 -381 23 0
62960 381 -21 -23 0
62960 -382 21 0
62960 -382 24 0
62960 382 -21 -24 0
62960 -383 21 0
62960 -383 25 0
62960 383 -21 -25 0
62960 -384 21 0
62960 -384 26 0
62960 384 -21 -26 0
62960 -385 21 0
62960 -385 27 0
62960 385 -21 -27 0
62960 -386 21 0
62960 -386 28 0
62960 386 -21 -28 0
62960 -387 22 0
62960 -387 23 0
62960 387 -22 -23 0
62960 -388 22 0
62960 -388 24 0
62960 388 -22 -24 0
62960 -389 22 0
62960 -389 25 0
62960 389 -22 -25 0
62960 -390 22 0
62960 -390 26 0
62960 390 -22 -26 0
62960 -391 22 0
62960 -391 27 0
62960 391 -22 -27 0
62960 -392 22 0
62960 -392 28 0
62960 392 -22 -28 0
62960 -393 23 0
62960 -393 24 0
62960 393 -23 -24 0
62960 -394 23 0
62960 -394 25 0
62960 394 -23 -25 0
62960 -395 23 0
62960 -395 26 0
62960 395 -23 -26 0
62960 -396 23 0
62960 -396 27 0
62960 396 -23 -27 0
62960 -397 23 0
62960 -397 28 0
62960 397 -23 -28 0
62960 -398 24 0
62960 -398 25 0
62960 398 -24 -25 0
62960 -399 24 0
62960 -399 26 0
62960 399 -24 -26 0
62960 -400 24 0
62960 -400 27 0
62960 400 -24 -27 0
62960 -401 24 0
62960 -401 28 0
62960 401 -24 -28 0
62960 -402 25 0
62960 -402 26 0
62960 402 -25 -26 0
62960 -403 25 0
62960 -403 27 0
62960 403 -25 -27 0
62960 -404 25 0
62960 -404 28 0
62960 404 -25 -28 0
62960 -405 26 0
62960 -405 27 0
62960 405 -26 -27 0
62960 -406 26 0
62960 -406 28 0
62960 406 -26 -28 0
62960 -407 27 0
62960 -407 28 0
62960 407 -27 -28 0
36722 1 0
62950 -1 0
79994 30 0
62950 -30 0
56712 31 0
62950 -31 0
64354 32 0
62950 -32 0
69058 33 0
62950 -33 0
48988 34 0
62950 -34 0
62512 35 0
62950 -35 0
77014 36 0
62950 -36 0
68786 37 0
62950 -37 0
63262 38 0
62950 -38 0
70638 39 0
62950 -39 0
48338 40 0
62950 -40 0
79414 41 0
62950 -41 0
63222 42 0
62950 -42 0
56010 43 0
62950 -43 0
59862 44 0
62950 -44 0
49638 45 0
62950 -45 0
64280 46 0
62950 -46 0
57502 47 0
62950 -47 0
59542 48 0
62950 -48 0
71918 49 0
62950 -49 0
62996 50 0
62950 -50 0
62250 51 0
62950 -51 0
56042 52 0
62950 -52 0
63722 53 0
62950 -53 0
56318 54 0
62950 -54 0
63324 55 0
62950 -55 0
63544 56 0
62950 -56 0
35531 2 0
62950 -2 0
67750 57 0
62950 -57 0
61870 58 0
62950 -58 0
65046 59 0
62950 -59 0
68230 60 0
62950 -60 0
73120 61 0
62950 -61 0
47472 62 0
62950 -62 0
41436 63 0
62950 -63 0
64186 64 0
62950 -64 0
57914 65 0
62950 -65 0
57926 66 0
62950 -66 0
65444 67 0
62950 -67 0
71158 68 0
62950 -68 0
59678 69 0
62950 -69 0
54440 70 0
62950 -70 0
65250 71 0
62950 -71 0
65240 72 0
62950 -72 0
65116 73 0
62950 -73 0
59194 74 0
62950 -74 0
53830 75 0
62950 -75 0
64260 76 0
62950 -76 0
61316 77 0
62950 -77 0
68832 78 0
62950 -78 0
63344 79 0
62950 -79 0
68802 80 0
62950 -80 0
63296 81 0
62950 -81 0
62140 82 0
62950 -82 0
86035 3 0
62950 -3 0
57138 83 0
62950 -83 0
76074 84 0
62950 -84 0
62096 85 0
62950 -85 0
67940 86 0
62950 -86 0
76838 87 0
62950 -87 0
56656 88 0
62950 -88 0
75820 89 0
62950 -89 0
55500 90 0
62950 -90 0
54566 91 0
62950 -91 0
59566 92 0
62950 -92 0
66170 93 0
62950 -93 0
56100 94 0
62950 -94 0
63472 95 0
62950 -95 0
68308 96 0
62950 -96 0
70740 97 0
62950 -97 0
71744 98 0
62950 -98 0
67144 99 0
62950 -99 0
60060 100 0
62950 -100 0
63142 101 0
62950 -101 0
63040 102 0
62950 -102 0
61578 103 0
62950 -103 0
61676 104 0
62950 -104 0
63356 105 0
62950 -105 0
62492 106 0
62950 -106 0
63094 107 0
62950 -107 0
48088 4 0
62950 -4 0
81970 108 0
62950 -108 0
52712 109 0
62950 -109 0
53456 110 0
62950 -110 0
69788 111 0
62950 -111 0
55074 112 0
62950 -112 0
62530 113 0
62950 -113 0
65030 114 0
62950 -114 0
60390 115 0
62950 -115 0
63116 116 0
62950 -116 0
72616 117 0
62950 -117 0
73194 118 0
62950 -118 0
79002 119 0
62950 -119 0
55108 120 0
62950 -120 0
65814 121 0
62950 -121 0
61532 122 0
62950 -122 0
71230 123 0
62950 -123 0
58610 124 0
62950 -124 0
61796 125 0
62950 -125 0
60920 126 0
62950 -126 0
59476 127 0
62950 -127 0
65194 128 0
62950 -128 0
60992 129 0
62950 -129 0
63450 130 0
62950 -130 0
63328 131 0
62950 -131 0
29855 5 0
62950 -5 0
74362 132 0
62950 -132 0
54780 133 0
62950 -133 0
60122 134 0
62950 -134 0
69550 135 0
62950 -135 0
61716 136 0
62950 -136 0
69152 137 0
62950 -137 0
63508 138 0
62950 -138 0
57702 139 0
62950 -139 0
63930 140 0
62950 -140 0
67638 141 0
62950 -141 0
58348 142 0
62950 -142 0
70194 143 0
62950 -143 0
58320 144 0
62950 -144 0
67908 145 0
62950 -145 0
55366 146 0
62950 -146 0
64896 147 0
62950 -147 0
60776 148 0
62950 -148 0
63356 149 0
62950 -149 0
68056 150 0
62950 -150 0
62758 151 0
62950 -151 0
66806 152 0
62950 -152 0
62518 153 0
62950 -153 0
62644 154 0
62950 -154 0
45359 6 0
62950 -6 0
67384 155 0
62950 -155 0
74176 156 0
62950 -156 0
54066 157 0
62950 -157 0
62924 158 0
62950 -158 0
58808 159 0
62950 -159 0
52276 160 0
62950 -160 0
70004 161 0
62950 -161 0
59232 162 0
62950 -162 0
57696 163 0
62950 -163 0
68402 164 0
62950 -164 0
55504 165 0
62950 -165 0
64300 166 0
62950 -166 0
56000 167 0
62950 -167 0
70290 168 0
62950 -168 0
68478 169 0
62950 -169 0
64382 170 0
62950 -170 0
70378 171 0
62950 -171 0
59806 172 0
62950 -172 0
62082 173 0
62950 -173 0
60724 174 0
62950 -174 0
64090 175 0
62950 -175 0
62410 176 0
62950 -176 0
35751 7 0
62950 -7 0
60762 177 0
62950 -177 0
79362 178 0
62950 -178 0
60988 179 0
62950 -179 0
72460 180 0
62950 -180 0
59894 181 0
62950 -181 0
50940 182 0
62950 -182 0
71786 183 0
62950 -183 0
66260 184 0
62950 -184 0
81336 185 0
62950 -185 0
67948 186 0
62950 -186 0
56376 187 0
62950 -187 0
64222 188 0
62950 -188 0
66236 189 0
62950 -189 0
57754 190 0
62950 -190 0
67980 191 0
62950 -191 0
61678 192 0
62950 -192 0
63872 193 0
62950 -193 0
65670 194 0
62950 -194 0
64326 195 0
62950 -195 0
63766 196 0
62950 -196 0
62824 197 0
62950 -197 0
30602 8 0
62950 -8 0
63766 198 0
62950 -198 0
62198 199 0
62950 -199 0
56238 200 0
62950 -200 0
71974 201 0
62950 -201 0
54694 202 0
62950 -202 0
66704 203 0
62950 -203 0
61820 204 0
62950 -204 0
59656 205 0
62950 -205 0
68392 206 0
62950 -206 0
56924 207 0
62950 -207 0
64060 208 0
62950 -208 0
58750 209 0
62950 -209 0
57358 210 0
62950 -210 0
64168 211 0
62950 -211 0
61672 212 0
62950 -212 0
69572 213 0
62950 -213 0
63432 214 0
62950 -214 0
68466 215 0
62950 -215 0
62896 216 0
62950 -216 0
62392 217 0
62950 -217 0
50127 9 0
62950 -9 0
72220 218 0
62950 -218 0
57848 219 0
62950 -219 0
65086 220 0
62950 -220 0
71510 221 0
62950 -221 0
71248 222 0
62950 -222 0
61238 223 0
62950 -223 0
53770 224 0
62950 -224 0
64130 225 0
62950 -225 0
64778 226 0
62950 -226 0
68680 227 0
62950 -227 0
61506 228 0
62950 -228 0
57816 229 0
62950 -229 0
59984 230 0
62950 -230 0
64992 231 0
62950 -231 0
68632 232 0
62950 -232 0
62110 233 0
62950 -233 0
69762 234 0
62950 -234 0
62710 235 0
62950 -235 0
62230 236 0
62950 -236 0
32797 10 0
62950 -10 0
73348 237 0
62950 -237 0
57654 238 0
62950 -238 0
66250 239 0
62950 -239 0
57876 240 0
62950 -240 0
61706 241 0
62950 -241 0
67760 242 0
62950 -242 0
55520 243 0
62950 -243 0
67358 244 0
62950 -244 0
55062 245 0
62950 -245 0
60502 246 0
62950 -246 0
62454 247 0
62950 -247 0
62118 248 0
62950 -248 0
62638 249 0
62950 -249 0
57366 250 0
62950 -250 0
62748 251 0
62950 -251 0
57158 252 0
62950 -252 0
62632 253 0
62950 -253 0
63778 254 0
62950 -254 0
58073 11 0
62950 -11 0
61852 255 0
62950 -255 0
56870 256 0
62950 -256 0
67436 257 0
62950 -257 0
60954 258 0
62950 -258 0
55486 259 0
62950 -259 0
64934 260 0
62950 -260 0
66804 261 0
62950 -261 0
64540 262 0
62950 -262 0
64894 263 0
62950 -263 0
63616 264 0
62950 -264 0
69638 265 0
62950 -265 0
65690 266 0
62950 -266 0
64270 267 0
62950 -267 0
60636 268 0
62950 -268 0
63740 269 0
62950 -269 0
63564 270 0
62950 -270 0
62086 271 0
62950 -271 0
54363 12 0
62950 -12 0
62726 272 0
62950 -272 0
65680 273 0
62950 -273 0
55570 274 0
62950 -274 0
65088 275 0
62950 -275 0
56338 276 0
62950 -276 0
78166 277 0
62950 -277 0
63038 278 0
62950 -278 0
64608 279 0
62950 -279 0
60246 280 0
62950 -280 0
66648 281 0
62950 -281 0
62442 282 0
62950 -282 0
60472 283 0
62950 -283 0
61676 284 0
62950 -284 0
60474 285 0
62950 -285 0
63600 286 0
62950 -286 0
62590 287 0
62950 -287 0
55484 13 0
62950 -13 0
59156 288 0
62950 -288 0
62068 289 0
62950 -289 0
65402 290 0
62950 -290 0
79060 291 0
62950 -291 0
59124 292 0
62950 -292 0
65450 293 0
62950 -293 0
64128 294 0
62950 -294 0
60820 295 0
62950 -295 0
65646 296 0
62950 -296 0
62752 297 0
62950 -297 0
69222 298 0
62950 -298 0
62326 299 0
62950 -299 0
67334 300 0
62950 -300 0
62986 301 0
62950 -301 0
62266 302 0
62950 -302 0
49036 14 0
62950 -14 0
62962 303 0
62950 -303 0
62168 304 0
62950 -304 0
70628 305 0
62950 -305 0
60340 306 0
62950 -306 0
56252 307 0
62950 -307 0
60790 308 0
62950 -308 0
68938 309 0
62950 -309 0
56140 310 0
62950 -310 0
67068 311 0
62950 -311 0
65736 312 0
62950 -312 0
60544 313 0
62950 -313 0
63388 314 0
62950 -314 0
61988 315 0
62950 -315 0
62968 316 0
62950 -316 0
62385 15 0
62950 -15 0
57436 317 0
62950 -317 0
65844 318 0
62950 -318 0
65570 319 0
62950 -319 0
62182 320 0
62950 -320 0
63990 321 0
62950 -321 0
60962 322 0
62950 -322 0
69018 323 0
62950 -323 0
63120 324 0
62950 -324 0
62312 325 0
62950 -325 0
62170 326 0
62950 -326 0
62546 327 0
62950 -327 0
63452 328 0
62950 -328 0
62608 329 0
62950 -329 0
48971 16 0
62950 -16 0
62650 330 0
62950 -330 0
63540 331 0
62950 -331 0
68024 332 0
62950 -332 0
58098 333 0
62950 -333 0
68602 334 0
62950 -334 0
61022 335 0
62950 -335 0
58406 336 0
62950 -336 0
64718 337 0
62950 -337 0
61992 338 0
62950 -338 0
63532 339 0
62950 -339 0
62280 340 0
62950 -340 0
62986 341 0
62950 -341 0
45206 17 0
62950 -17 0
73610 342 0
62950 -342 0
56926 343 0
62950 -343 0
63900 344 0
62950 -344 0
63502 345 0
62950 -345 0
61698 346 0
62950 -346 0
60178 347 0
62950 -347 0
53600 348 0
62950 -348 0
63952 349 0
62950 -349 0
55128 350 0
62950 -350 0
63250 351 0
62950 -351 0
63850 352 0
62950 -352 0
42370 18 0
62950 -18 0
64132 353 0
62950 -353 0
66232 354 0
62950 -354 0
71868 355 0
62950 -355 0
63586 356 0
62950 -356 0
62908 357 0
62950 -357 0
68154 358 0
62950 -358 0
65610 359 0
62950 -359 0
66800 360 0
62950 -360 0
63710 361 0
62950 -361 0
62392 362 0
62950 -362 0
43935 19 0
62950 -19 0
61082 363 0
62950 -363 0
65074 364 0
62950 -364 0
66596 365 0
62950 -365 0
63670 366 0
62950 -366 0
59994 367 0
62950 -367 0
63102 368 0
62950 -368 0
57602 369 0
62950 -369 0
64100 370 0
62950 -370 0
62770 371 0
62950 -371 0
53100 20 0
62950 -20 0
62848 372 0
62950 -372 0
60634 373 0
62950 -373 0
65420 374 0
62950 -374 0
64120 375 0
62950 -375 0
60594 376 0
62950 -376 0
63020 377 0
62950 -377 0
61764 378 0
62950 -378 0
63220 379 0
62950 -379 0
57471 21 0
62950 -21 0
62236 380 0
62950 -380 0
61494 381 0
62950 -381 0
65036 382 0
62950 -382 0
62954 383 0
62950 -383 0
66662 384 0
62950 -384 0
62494 385 0
62950 -385 0
62968 386 0
62950 -386 0
56703 22 0
62950 -22 0
62952 387 0
62950 -387 0
65444 388 0
62950 -388 0
62892 389 0
62950 -389 0
65960 390 0
62950 -390 0
61496 391 0
62950 -391 0
63472 392 0
62950 -392 0
56658 23 0
62950 -23 0
62460 393 0
62950 -393 0
65270 394 0
62950 -394 0
61970 395 0
62950 -395 0
63178 396 0
62950 -396 0
63238 397 0
62950 -397 0
60598 24 0
62950 -24 0
62874 398 0
62950 -398 0
56292 399 0
62950 -399 0
63064 400 0
62950 -400 0
63688 401 0
62950 -401 0
64902 25 0
62950 -25 0
62820 402 0
62950 -402 0
62576 403 0
62950 -403 0
62950 404 0
62950 -404 0
59404 26 0
62950 -26 0
63208 405 0
62950 -405 0
63526 406 0
62950 -406 0
63591 27 0
62950 -27 0
63094 407 0
62950 -407 0
62707 28 0
62950 -28 0
